1553478
69,13,38,7,27,35,11,64,88,90,10,48,40,37,25,36,8,65,76,89,44,4,34,97,100,0,81,33,51,82,2,62,78,73,47,79,16,86,75,49,17,6,87,59,41,107,77,32,105,54,39,67,12,20,52,99,101,104,92,95,61,18,72,98,70,46,96,103,53,57,21,63,14,22,91,55,102,94,31,50,83,58,1,80,45,93,106,15,28,24,19,43,42,84,60,5,29,3,66,23,108,9,30,71,56,74,85,26,68,69